\Problem : SOD_BK : Shared Backup Network Provision for VNE (Guo2012)
Minimize
obj :  + 0.010716390719605635 Xvl#73sp#14#11#25 + 0.010716390719605635 Xvl#77sp#11#25 + 0.010716390719605635 Xvl#79sp#14#11 + 0.010716390719605635 Xvl#81sp#18#11 + 0.010716390719605635 Xvl#83sp#16#11 + 0.010716390719605635 Zs#11 + 0.010716390719605635 Xvl#72sp#26#12#13 + 0.010716390719605635 Xvl#76sp#26#12 + 0.010716390719605635 Xvl#78sp#12#13 + 0.010716390719605635 Xvl#80sp#12#17 + 0.010716390719605635 Xvl#82sp#12#15 + 0.010716390719605635 Zs#12 + 0.010018735034514541 Xvl#72sp#26#12#13 + 0.010018735034514541 Xvl#77sp#13#27#37 + 0.010018735034514541 Xvl#78sp#12#13 + 0.010018735034514541 Xvl#84sp#13#27 + 0.010018735034514541 Zs#13 + 0.010018735034514541 Xvl#73sp#14#11#25 + 0.010018735034514541 Xvl#76sp#38#28#14 + 0.010018735034514541 Xvl#79sp#14#11 + 0.010018735034514541 Xvl#85sp#28#14 + 0.010018735034514541 Zs#14 + 0.018302615443746912 Xvl#77sp#15#37 + 0.018302615443746912 Xvl#82sp#12#15 + 0.018302615443746912 Xvl#84sp#15 + 0.018302615443746912 Zs#15 + 0.018302615443746912 Xvl#76sp#38#16 + 0.018302615443746912 Xvl#83sp#16#11 + 0.018302615443746912 Xvl#85sp#16 + 0.018302615443746912 Zs#16 + 0.017152070254879765 Xvl#80sp#12#17 + 0.017152070254879765 Xvl#84sp#17#36 + 0.017152070254879765 Zs#17 + 0.017152070254879765 Xvl#81sp#18#11 + 0.017152070254879765 Xvl#85sp#35#18 + 0.017152070254879765 Zs#18 + 0.013488177612322797 Xvl#72sp#26#19 + 0.013488177612322797 Xvl#78sp#19 + 0.013488177612322797 Xvl#82sp#19#27 + 0.013488177612322797 Zs#19 + 0.013488177612322797 Xvl#73sp#20#25 + 0.013488177612322797 Xvl#79sp#20 + 0.013488177612322797 Xvl#83sp#28#20 + 0.013488177612322797 Zs#20 + 0.018497623055437375 Zs#21 + 0.018497623055437375 Zs#22 + 0.016683906703593716 Xvl#78sp#23#32 + 0.016683906703593716 Zs#23 + 0.016683906703593716 Xvl#79sp#31#24 + 0.016683906703593716 Zs#24 + 0.01082344791756862 Xvl#73sp#20#25 + 0.01082344791756862 Xvl#73sp#14#11#25 + 0.01082344791756862 Xvl#77sp#11#25 + 0.01082344791756862 Xvl#80sp#25#54 + 0.01082344791756862 Xvl#80sp#25#57#56 + 0.01082344791756862 Xvl#82sp#25#38 + 0.01082344791756862 Zs#25 + 0.01082344791756862 Xvl#72sp#26#19 + 0.01082344791756862 Xvl#72sp#26#12#13 + 0.01082344791756862 Xvl#76sp#26#12 + 0.01082344791756862 Xvl#81sp#53#26 + 0.01082344791756862 Xvl#81sp#55#58#26 + 0.01082344791756862 Xvl#83sp#37#26 + 0.01082344791756862 Zs#26 + 0.013544813013856342 Xvl#73sp#27#37 + 0.013544813013856342 Xvl#77sp#13#27#37 + 0.013544813013856342 Xvl#82sp#19#27 + 0.013544813013856342 Xvl#84sp#13#27 + 0.013544813013856342 Xvl#91sp#30#27 + 0.013544813013856342 Zs#27 + 0.013544813013856342 Xvl#72sp#38#28 + 0.013544813013856342 Xvl#76sp#38#28#14 + 0.013544813013856342 Xvl#83sp#28#20 + 0.013544813013856342 Xvl#85sp#28#14 + 0.013544813013856342 Xvl#90sp#28#29 + 0.013544813013856342 Zs#28 + 0.014166111827286764 Xvl#90sp#28#29 + 0.014166111827286764 Zs#29 + 0.014166111827286764 Xvl#91sp#30#27 + 0.014166111827286764 Zs#30 + 0.013970968327814802 Xvl#79sp#31#24 + 0.013970968327814802 Zs#31 + 0.013970968327814802 Xvl#78sp#23#32 + 0.013970968327814802 Zs#32 + 0.013366482209212178 Xvl#86sp#33#39 + 0.013366482209212178 Xvl#88sp#33#43 + 0.013366482209212178 Xvl#90sp#33 + 0.013366482209212178 Xvl#92sp#33#41 + 0.013366482209212178 Xvl#98sp#36#33 + 0.013366482209212178 Zs#33 + 0.013366482209212178 Xvl#87sp#40#34 + 0.013366482209212178 Xvl#89sp#44#34 + 0.013366482209212178 Xvl#91sp#34 + 0.013366482209212178 Xvl#93sp#42#34 + 0.013366482209212178 Xvl#99sp#34#35 + 0.013366482209212178 Zs#34 + 0.012966636843401925 Xvl#85sp#35#18 + 0.012966636843401925 Xvl#86sp#35#42#39 + 0.012966636843401925 Xvl#88sp#35#55 + 0.012966636843401925 Xvl#90sp#35#42 + 0.012966636843401925 Xvl#92sp#35 + 0.012966636843401925 Xvl#99sp#34#35 + 0.012966636843401925 Zs#35 + 0.012966636843401925 Xvl#84sp#17#36 + 0.012966636843401925 Xvl#87sp#40#41#36 + 0.012966636843401925 Xvl#89sp#56#36 + 0.012966636843401925 Xvl#91sp#41#36 + 0.012966636843401925 Xvl#93sp#36 + 0.012966636843401925 Xvl#98sp#36#33 + 0.012966636843401925 Zs#36 + 0.01002445968162316 Xvl#73sp#27#37 + 0.01002445968162316 Xvl#77sp#15#37 + 0.01002445968162316 Xvl#77sp#13#27#37 + 0.01002445968162316 Xvl#83sp#37#26 + 0.01002445968162316 Xvl#86sp#37#57#48 + 0.01002445968162316 Xvl#88sp#37#57 + 0.01002445968162316 Xvl#92sp#37#54 + 0.01002445968162316 Zs#37 + 0.01002445968162316 Xvl#72sp#38#28 + 0.01002445968162316 Xvl#76sp#38#16 + 0.01002445968162316 Xvl#76sp#38#28#14 + 0.01002445968162316 Xvl#82sp#25#38 + 0.01002445968162316 Xvl#87sp#47#58#38 + 0.01002445968162316 Xvl#89sp#58#38 + 0.01002445968162316 Xvl#93sp#53#38 + 0.01002445968162316 Zs#38 + 0.01154094728095282 Xvl#86sp#33#39 + 0.01154094728095282 Xvl#86sp#35#42#39 + 0.01154094728095282 Xvl#94sp#42#39 + 0.01154094728095282 Xvl#94sp#55#44#39 + 0.01154094728095282 Xvl#100sp#39 + 0.01154094728095282 Zs#39 + 0.01154094728095282 Xvl#87sp#40#34 + 0.01154094728095282 Xvl#87sp#40#41#36 + 0.01154094728095282 Xvl#95sp#40#41 + 0.01154094728095282 Xvl#95sp#40#43#56 + 0.01154094728095282 Xvl#101sp#40 + 0.01154094728095282 Zs#40 + 0.014485405953501845 Xvl#87sp#40#41#36 + 0.014485405953501845 Xvl#91sp#41#36 + 0.014485405953501845 Xvl#92sp#33#41 + 0.014485405953501845 Xvl#95sp#40#41 + 0.014485405953501845 Xvl#97sp#44#41 + 0.014485405953501845 Xvl#99sp#41 + 0.014485405953501845 Zs#41 + 0.014485405953501845 Xvl#86sp#35#42#39 + 0.014485405953501845 Xvl#90sp#35#42 + 0.014485405953501845 Xvl#93sp#42#34 + 0.014485405953501845 Xvl#94sp#42#39 + 0.014485405953501845 Xvl#96sp#42#43 + 0.014485405953501845 Xvl#98sp#42 + 0.014485405953501845 Zs#42 + 0.011317594332148758 Xvl#88sp#33#43 + 0.011317594332148758 Xvl#95sp#40#43#56 + 0.011317594332148758 Xvl#96sp#42#43 + 0.011317594332148758 Xvl#99sp#43#56 + 0.011317594332148758 Xvl#100sp#43#48 + 0.011317594332148758 Xvl#100sp#43#61#50 + 0.011317594332148758 Zs#43 + 0.011317594332148758 Xvl#89sp#44#34 + 0.011317594332148758 Xvl#94sp#55#44#39 + 0.011317594332148758 Xvl#97sp#44#41 + 0.011317594332148758 Xvl#98sp#55#44 + 0.011317594332148758 Xvl#101sp#47#44 + 0.011317594332148758 Xvl#101sp#49#62#44 + 0.011317594332148758 Zs#44 + 0.013631964229725861 Zs#45 + 0.013631964229725861 Zs#46 + 0.018341556464481577 Xvl#87sp#47#58#38 + 0.018341556464481577 Xvl#95sp#47#56 + 0.018341556464481577 Xvl#101sp#47#44 + 0.018341556464481577 Zs#47 + 0.018341556464481577 Xvl#86sp#37#57#48 + 0.018341556464481577 Xvl#94sp#55#48 + 0.018341556464481577 Xvl#100sp#43#48 + 0.018341556464481577 Zs#48 + 0.01246944984787271 Xvl#101sp#49#62#44 + 0.01246944984787271 Zs#49 + 0.01246944984787271 Xvl#100sp#43#61#50 + 0.01246944984787271 Zs#50 + 0.011462894610146955 Zs#51 + 0.011462894610146955 Zs#52 + 0.01710805447204544 Xvl#75sp#56#53 + 0.01710805447204544 Xvl#81sp#53#26 + 0.01710805447204544 Xvl#93sp#53#38 + 0.01710805447204544 Xvl#96sp#53#57 + 0.01710805447204544 Zs#53 + 0.01710805447204544 Xvl#74sp#54#55 + 0.01710805447204544 Xvl#80sp#25#54 + 0.01710805447204544 Xvl#92sp#37#54 + 0.01710805447204544 Xvl#97sp#58#54 + 0.01710805447204544 Zs#54 + 0.011940298507462687 Xvl#74sp#54#55 + 0.011940298507462687 Xvl#81sp#55#58#26 + 0.011940298507462687 Xvl#88sp#35#55 + 0.011940298507462687 Xvl#94sp#55#48 + 0.011940298507462687 Xvl#94sp#55#44#39 + 0.011940298507462687 Xvl#96sp#55 + 0.011940298507462687 Xvl#98sp#55#44 + 0.011940298507462687 Zs#55 + 0.011940298507462687 Xvl#75sp#56#53 + 0.011940298507462687 Xvl#80sp#25#57#56 + 0.011940298507462687 Xvl#89sp#56#36 + 0.011940298507462687 Xvl#95sp#47#56 + 0.011940298507462687 Xvl#95sp#40#43#56 + 0.011940298507462687 Xvl#97sp#56 + 0.011940298507462687 Xvl#99sp#43#56 + 0.011940298507462687 Zs#56 + 0.010123096857790734 Xvl#74sp#57 + 0.010123096857790734 Xvl#80sp#25#57#56 + 0.010123096857790734 Xvl#86sp#37#57#48 + 0.010123096857790734 Xvl#88sp#37#57 + 0.010123096857790734 Xvl#96sp#53#57 + 0.010123096857790734 Zs#57 + 0.010123096857790734 Xvl#75sp#58 + 0.010123096857790734 Xvl#81sp#55#58#26 + 0.010123096857790734 Xvl#87sp#47#58#38 + 0.010123096857790734 Xvl#89sp#58#38 + 0.010123096857790734 Xvl#97sp#58#54 + 0.010123096857790734 Zs#58 + 0.01905923610581688 Xvl#74sp#59#62 + 0.01905923610581688 Zs#59 + 0.01905923610581688 Xvl#75sp#61#60 + 0.01905923610581688 Zs#60 + 0.011382132328670453 Xvl#75sp#61#60 + 0.011382132328670453 Xvl#100sp#43#61#50 + 0.011382132328670453 Zs#61 + 0.011382132328670453 Xvl#74sp#59#62 + 0.011382132328670453 Xvl#101sp#49#62#44 + 0.011382132328670453 Zs#62
Subject To
 + Xvl#73sp#14#11#25 + Xvl#77sp#11#25 + Xvl#79sp#14#11 + Xvl#81sp#18#11 + Xvl#83sp#16#11 + Zs#11 <= 93.305
 + Xvl#72sp#26#12#13 + Xvl#76sp#26#12 + Xvl#78sp#12#13 + Xvl#80sp#12#17 + Xvl#82sp#12#15 + Zs#12 <= 93.305
 + Xvl#72sp#26#12#13 + Xvl#77sp#13#27#37 + Xvl#78sp#12#13 + Xvl#84sp#13#27 + Zs#13 <= 99.803
 + Xvl#73sp#14#11#25 + Xvl#76sp#38#28#14 + Xvl#79sp#14#11 + Xvl#85sp#28#14 + Zs#14 <= 99.803
 + Xvl#77sp#15#37 + Xvl#82sp#12#15 + Xvl#84sp#15 + Zs#15 <= 54.627
 + Xvl#76sp#38#16 + Xvl#83sp#16#11 + Xvl#85sp#16 + Zs#16 <= 54.627
 + Xvl#80sp#12#17 + Xvl#84sp#17#36 + Zs#17 <= 58.292
 + Xvl#81sp#18#11 + Xvl#85sp#35#18 + Zs#18 <= 58.292
 + Xvl#72sp#26#19 + Xvl#78sp#19 + Xvl#82sp#19#27 + Zs#19 <= 74.129
 + Xvl#73sp#20#25 + Xvl#79sp#20 + Xvl#83sp#28#20 + Zs#20 <= 74.129
 + Zs#21 <= 54.051
 + Zs#22 <= 54.051
 + Xvl#78sp#23#32 + Zs#23 <= 59.928
 + Xvl#79sp#31#24 + Zs#24 <= 59.928
 + Xvl#73sp#20#25 + Xvl#73sp#14#11#25 + Xvl#77sp#11#25 + Xvl#80sp#25#54 + Xvl#80sp#25#57#56 + Xvl#82sp#25#38 + Zs#25 <= 92.382
 + Xvl#72sp#26#19 + Xvl#72sp#26#12#13 + Xvl#76sp#26#12 + Xvl#81sp#53#26 + Xvl#81sp#55#58#26 + Xvl#83sp#37#26 + Zs#26 <= 92.382
 + Xvl#73sp#27#37 + Xvl#77sp#13#27#37 + Xvl#82sp#19#27 + Xvl#84sp#13#27 + Xvl#91sp#30#27 + Zs#27 <= 73.819
 + Xvl#72sp#38#28 + Xvl#76sp#38#28#14 + Xvl#83sp#28#20 + Xvl#85sp#28#14 + Xvl#90sp#28#29 + Zs#28 <= 73.819
 + Xvl#90sp#28#29 + Zs#29 <= 70.581
 + Xvl#91sp#30#27 + Zs#30 <= 70.581
 + Xvl#79sp#31#24 + Zs#31 <= 71.567
 + Xvl#78sp#23#32 + Zs#32 <= 71.567
 + Xvl#86sp#33#39 + Xvl#88sp#33#43 + Xvl#90sp#33 + Xvl#92sp#33#41 + Xvl#98sp#36#33 + Zs#33 <= 74.804
 + Xvl#87sp#40#34 + Xvl#89sp#44#34 + Xvl#91sp#34 + Xvl#93sp#42#34 + Xvl#99sp#34#35 + Zs#34 <= 74.804
 + Xvl#85sp#35#18 + Xvl#86sp#35#42#39 + Xvl#88sp#35#55 + Xvl#90sp#35#42 + Xvl#92sp#35 + Xvl#99sp#34#35 + Zs#35 <= 77.111
 + Xvl#84sp#17#36 + Xvl#87sp#40#41#36 + Xvl#89sp#56#36 + Xvl#91sp#41#36 + Xvl#93sp#36 + Xvl#98sp#36#33 + Zs#36 <= 77.111
 + Xvl#73sp#27#37 + Xvl#77sp#15#37 + Xvl#77sp#13#27#37 + Xvl#83sp#37#26 + Xvl#86sp#37#57#48 + Xvl#88sp#37#57 + Xvl#92sp#37#54 + Zs#37 <= 99.746
 + Xvl#72sp#38#28 + Xvl#76sp#38#16 + Xvl#76sp#38#28#14 + Xvl#82sp#25#38 + Xvl#87sp#47#58#38 + Xvl#89sp#58#38 + Xvl#93sp#53#38 + Zs#38 <= 99.746
 + Xvl#86sp#33#39 + Xvl#86sp#35#42#39 + Xvl#94sp#42#39 + Xvl#94sp#55#44#39 + Xvl#100sp#39 + Zs#39 <= 86.638
 + Xvl#87sp#40#34 + Xvl#87sp#40#41#36 + Xvl#95sp#40#41 + Xvl#95sp#40#43#56 + Xvl#101sp#40 + Zs#40 <= 86.638
 + Xvl#87sp#40#41#36 + Xvl#91sp#41#36 + Xvl#92sp#33#41 + Xvl#95sp#40#41 + Xvl#97sp#44#41 + Xvl#99sp#41 + Zs#41 <= 69.025
 + Xvl#86sp#35#42#39 + Xvl#90sp#35#42 + Xvl#93sp#42#34 + Xvl#94sp#42#39 + Xvl#96sp#42#43 + Xvl#98sp#42 + Zs#42 <= 69.025
 + Xvl#88sp#33#43 + Xvl#95sp#40#43#56 + Xvl#96sp#42#43 + Xvl#99sp#43#56 + Xvl#100sp#43#48 + Xvl#100sp#43#61#50 + Zs#43 <= 88.348
 + Xvl#89sp#44#34 + Xvl#94sp#55#44#39 + Xvl#97sp#44#41 + Xvl#98sp#55#44 + Xvl#101sp#47#44 + Xvl#101sp#49#62#44 + Zs#44 <= 88.348
 + Zs#45 <= 73.347
 + Zs#46 <= 73.347
 + Xvl#87sp#47#58#38 + Xvl#95sp#47#56 + Xvl#101sp#47#44 + Zs#47 <= 54.511
 + Xvl#86sp#37#57#48 + Xvl#94sp#55#48 + Xvl#100sp#43#48 + Zs#48 <= 54.511
 + Xvl#101sp#49#62#44 + Zs#49 <= 80.186
 + Xvl#100sp#43#61#50 + Zs#50 <= 80.186
 + Zs#51 <= 87.228
 + Zs#52 <= 87.228
 + Xvl#75sp#56#53 + Xvl#81sp#53#26 + Xvl#93sp#53#38 + Xvl#96sp#53#57 + Zs#53 <= 58.442
 + Xvl#74sp#54#55 + Xvl#80sp#25#54 + Xvl#92sp#37#54 + Xvl#97sp#58#54 + Zs#54 <= 58.442
 + Xvl#74sp#54#55 + Xvl#81sp#55#58#26 + Xvl#88sp#35#55 + Xvl#94sp#55#48 + Xvl#94sp#55#44#39 + Xvl#96sp#55 + Xvl#98sp#55#44 + Zs#55 <= 83.74
 + Xvl#75sp#56#53 + Xvl#80sp#25#57#56 + Xvl#89sp#56#36 + Xvl#95sp#47#56 + Xvl#95sp#40#43#56 + Xvl#97sp#56 + Xvl#99sp#43#56 + Zs#56 <= 83.74
 + Xvl#74sp#57 + Xvl#80sp#25#57#56 + Xvl#86sp#37#57#48 + Xvl#88sp#37#57 + Xvl#96sp#53#57 + Zs#57 <= 98.774
 + Xvl#75sp#58 + Xvl#81sp#55#58#26 + Xvl#87sp#47#58#38 + Xvl#89sp#58#38 + Xvl#97sp#58#54 + Zs#58 <= 98.774
 + Xvl#74sp#59#62 + Zs#59 <= 52.458
 + Xvl#75sp#61#60 + Zs#60 <= 52.458
 + Xvl#75sp#61#60 + Xvl#100sp#43#61#50 + Zs#61 <= 87.847
 + Xvl#74sp#59#62 + Xvl#101sp#49#62#44 + Zs#62 <= 87.847
 + Xvl#72sp#38#28 + Xvl#72sp#26#19 + Xvl#72sp#26#12#13 = 31.467355129115298
 + Xvl#73sp#27#37 + Xvl#73sp#20#25 + Xvl#73sp#14#11#25 = 31.467355129115298
 + Xvl#74sp#57 + Xvl#74sp#54#55 + Xvl#74sp#59#62 = 18.7034200459625
 + Xvl#75sp#58 + Xvl#75sp#56#53 + Xvl#75sp#61#60 = 18.7034200459625
 + Xvl#76sp#26#12 + Xvl#76sp#38#16 + Xvl#76sp#38#28#14 = 42.65226065676166
 + Xvl#77sp#11#25 + Xvl#77sp#15#37 + Xvl#77sp#13#27#37 = 42.65226065676166
 + Xvl#78sp#19 + Xvl#78sp#12#13 + Xvl#78sp#23#32 = 14.649333551696241
 + Xvl#79sp#20 + Xvl#79sp#14#11 + Xvl#79sp#31#24 = 14.649333551696241
 + Xvl#80sp#12#17 + Xvl#80sp#25#54 + Xvl#80sp#25#57#56 = 9.35874388951809
 + Xvl#81sp#18#11 + Xvl#81sp#53#26 + Xvl#81sp#55#58#26 = 9.35874388951809
 + Xvl#82sp#25#38 + Xvl#82sp#19#27 + Xvl#82sp#12#15 = 4.444477385979745
 + Xvl#83sp#37#26 + Xvl#83sp#28#20 + Xvl#83sp#16#11 = 4.444477385979745
 + Xvl#84sp#15 + Xvl#84sp#13#27 + Xvl#84sp#17#36 = 14.954788854602363
 + Xvl#85sp#16 + Xvl#85sp#28#14 + Xvl#85sp#35#18 = 14.954788854602363
 + Xvl#86sp#33#39 + Xvl#86sp#37#57#48 + Xvl#86sp#35#42#39 = 30.449344994191748
 + Xvl#87sp#40#34 + Xvl#87sp#47#58#38 + Xvl#87sp#40#41#36 = 30.449344994191748
 + Xvl#88sp#37#57 + Xvl#88sp#33#43 + Xvl#88sp#35#55 = 29.351985078438357
 + Xvl#89sp#58#38 + Xvl#89sp#44#34 + Xvl#89sp#56#36 = 29.351985078438357
 + Xvl#90sp#33 + Xvl#90sp#35#42 + Xvl#90sp#28#29 = 37.92993632412307
 + Xvl#91sp#34 + Xvl#91sp#41#36 + Xvl#91sp#30#27 = 37.92993632412307
 + Xvl#92sp#35 + Xvl#92sp#37#54 + Xvl#92sp#33#41 = 40.7377129229451
 + Xvl#93sp#36 + Xvl#93sp#53#38 + Xvl#93sp#42#34 = 40.7377129229451
 + Xvl#94sp#42#39 + Xvl#94sp#55#48 + Xvl#94sp#55#44#39 = 49.94778108410679
 + Xvl#95sp#40#41 + Xvl#95sp#47#56 + Xvl#95sp#40#43#56 = 49.94778108410679
 + Xvl#96sp#55 + Xvl#96sp#42#43 + Xvl#96sp#53#57 = 43.585196080203836
 + Xvl#97sp#56 + Xvl#97sp#44#41 + Xvl#97sp#58#54 = 43.585196080203836
 + Xvl#98sp#42 + Xvl#98sp#55#44 + Xvl#98sp#36#33 = 11.85403922577012
 + Xvl#99sp#41 + Xvl#99sp#43#56 + Xvl#99sp#34#35 = 11.85403922577012
 + Xvl#100sp#39 + Xvl#100sp#43#48 + Xvl#100sp#43#61#50 = 4.208414517769715
 + Xvl#101sp#40 + Xvl#101sp#47#44 + Xvl#101sp#49#62#44 = 4.208414517769715
 + yf#11r#13#20 + yf#11r#15#37#26 + yf#11r#13#31#24 - Xvl#73sp#14#11#25 - Xvl#77sp#11#25 - Xvl#79sp#14#11 - Xvl#81sp#18#11 - Xvl#83sp#16#11 = 0
 + yf#12r#19#14 + yf#12r#25#38#16 + yf#12r#23#32#14 - Xvl#72sp#26#12#13 - Xvl#76sp#26#12 - Xvl#78sp#12#13 - Xvl#80sp#12#17 - Xvl#82sp#12#15 = 0
 + yf#13r#11#19 + yf#13r#15#28 + yf#13r#11#23#32 - Xvl#72sp#26#12#13 - Xvl#77sp#13#27#37 - Xvl#78sp#12#13 - Xvl#84sp#13#27 = 0
 + yf#14r#20#12 + yf#14r#27#16 + yf#14r#31#24#12 - Xvl#73sp#14#11#25 - Xvl#76sp#38#28#14 - Xvl#79sp#14#11 - Xvl#85sp#28#14 = 0
 + yf#15r#13#27 + yf#15r#17#36 + yf#15r#11#25#38 - Xvl#77sp#15#37 - Xvl#82sp#12#15 - Xvl#84sp#15 = 0
 + yf#16r#28#14 + yf#16r#35#18 + yf#16r#37#26#12 - Xvl#76sp#38#16 - Xvl#83sp#16#11 - Xvl#85sp#16 = 0
 + yf#17r#15#35 + yf#17r#13#27#35 + yf#17r#11#25#54 - Xvl#80sp#12#17 - Xvl#84sp#17#36 = 0
 + yf#18r#36#16 + yf#18r#36#28#14 + yf#18r#53#26#12 - Xvl#81sp#18#11 - Xvl#85sp#35#18 = 0
 + yf#19r#12#13 + yf#19r#23#32 + yf#19r#25#38#28 - Xvl#72sp#26#19 - Xvl#78sp#19 - Xvl#82sp#19#27 = 0
 + yf#20r#14#11 + yf#20r#31#24 + yf#20r#27#37#26 - Xvl#73sp#20#25 - Xvl#79sp#20 - Xvl#83sp#28#20 = 0
 + yf#21r#23#46 + yf#21r#19#29#39 + yf#21r#25#57#48 = 0
 + yf#22r#45#24 + yf#22r#40#30#20 + yf#22r#47#58#26 = 0
 + yf#23r#19#31 + yf#23r#21#45 + yf#23r#12#13#31 - Xvl#78sp#23#32 = 0
 + yf#24r#32#20 + yf#24r#46#22 + yf#24r#32#14#11 - Xvl#79sp#31#24 = 0
 + yf#25r#19#27#37 + yf#25r#12#15#37 + yf#25r#12#13#27#37 - Xvl#73sp#20#25 - Xvl#73sp#14#11#25 - Xvl#77sp#11#25 - Xvl#80sp#25#54 - Xvl#80sp#25#57#56 - Xvl#82sp#25#38 = 0
 + yf#26r#38#28#20 + yf#26r#38#16#11 + yf#26r#38#28#14#11 - Xvl#72sp#26#19 - Xvl#72sp#26#12#13 - Xvl#76sp#26#12 - Xvl#81sp#53#26 - Xvl#81sp#55#58#26 - Xvl#83sp#37#26 = 0
 + yf#27r#29#34 + yf#27r#14#15 + yf#27r#20#25#38 - Xvl#73sp#27#37 - Xvl#77sp#13#27#37 - Xvl#82sp#19#27 - Xvl#84sp#13#27 - Xvl#91sp#30#27 = 0
 + yf#28r#33#30 + yf#28r#16#13 + yf#28r#37#26#19 - Xvl#72sp#38#28 - Xvl#76sp#38#28#14 - Xvl#83sp#28#20 - Xvl#85sp#28#14 - Xvl#90sp#28#29 = 0
 + yf#29r#27#33 + yf#29r#31#46#40 + yf#29r#27#35#42 - Xvl#90sp#28#29 = 0
 + yf#30r#34#28 + yf#30r#39#45#32 + yf#30r#41#36#28 - Xvl#91sp#30#27 = 0
 + yf#31r#20#23 + yf#31r#14#11#23 + yf#31r#29#39#45 - Xvl#79sp#31#24 = 0
 + yf#32r#24#19 + yf#32r#24#12#13 + yf#32r#46#40#30 - Xvl#78sp#23#32 = 0
 + yf#33r#35#42 + yf#33r#28#29 + yf#33r#37#57#44 - Xvl#86sp#33#39 - Xvl#88sp#33#43 - Xvl#90sp#33 - Xvl#92sp#33#41 - Xvl#98sp#36#33 = 0
 + yf#34r#41#36 + yf#34r#30#27 + yf#34r#43#58#38 - Xvl#87sp#40#34 - Xvl#89sp#44#34 - Xvl#91sp#34 - Xvl#93sp#42#34 - Xvl#99sp#34#35 = 0
 + yf#35r#37#54 + yf#35r#33#41 + yf#35r#37#57#56 - Xvl#85sp#35#18 - Xvl#86sp#35#42#39 - Xvl#88sp#35#55 - Xvl#90sp#35#42 - Xvl#92sp#35 - Xvl#99sp#34#35 = 0
 + yf#36r#53#38 + yf#36r#42#34 + yf#36r#55#58#38 - Xvl#84sp#17#36 - Xvl#87sp#40#41#36 - Xvl#89sp#56#36 - Xvl#91sp#41#36 - Xvl#93sp#36 - Xvl#98sp#36#33 = 0
 + yf#37r#35#53 + yf#37r#33#43#58 + yf#37r#35#55#58 - Xvl#73sp#27#37 - Xvl#77sp#15#37 - Xvl#77sp#13#27#37 - Xvl#83sp#37#26 - Xvl#86sp#37#57#48 - Xvl#88sp#37#57 - Xvl#92sp#37#54 = 0
 + yf#38r#54#36 + yf#38r#57#44#34 + yf#38r#57#56#36 - Xvl#72sp#38#28 - Xvl#76sp#38#16 - Xvl#76sp#38#28#14 - Xvl#82sp#25#38 - Xvl#87sp#47#58#38 - Xvl#89sp#58#38 - Xvl#93sp#53#38 = 0
 + yf#39r#43#48 + yf#39r#43#61#50 + yf#39r#30#31#46 - Xvl#86sp#33#39 - Xvl#86sp#35#42#39 - Xvl#94sp#42#39 - Xvl#94sp#55#44#39 - Xvl#100sp#39 = 0
 + yf#40r#47#44 + yf#40r#49#62#44 + yf#40r#45#32#29 - Xvl#87sp#40#34 - Xvl#87sp#40#41#36 - Xvl#95sp#40#41 - Xvl#95sp#40#43#56 - Xvl#101sp#40 = 0
 + yf#41r#43#56 + yf#41r#34#35 + yf#41r#43#58#54 - Xvl#87sp#40#41#36 - Xvl#91sp#41#36 - Xvl#92sp#33#41 - Xvl#95sp#40#41 - Xvl#97sp#44#41 - Xvl#99sp#41 = 0
 + yf#42r#55#44 + yf#42r#36#33 + yf#42r#53#57#44 - Xvl#86sp#35#42#39 - Xvl#90sp#35#42 - Xvl#93sp#42#34 - Xvl#94sp#42#39 - Xvl#96sp#42#43 - Xvl#98sp#42 = 0
 + yf#43r#41#55 + yf#43r#39#47 + yf#43r#34#37#57 - Xvl#88sp#33#43 - Xvl#95sp#40#43#56 - Xvl#96sp#42#43 - Xvl#99sp#43#56 - Xvl#100sp#43#48 - Xvl#100sp#43#61#50 = 0
 + yf#44r#56#42 + yf#44r#48#40 + yf#44r#58#38#33 - Xvl#89sp#44#34 - Xvl#94sp#55#44#39 - Xvl#97sp#44#41 - Xvl#98sp#55#44 - Xvl#101sp#47#44 - Xvl#101sp#49#62#44 = 0
 + yf#45r#49#52 + yf#45r#22#23 + yf#45r#40#30#31 = 0
 + yf#46r#51#50 + yf#46r#24#21 + yf#46r#32#29#39 = 0
 + yf#47r#40#43 + yf#47r#49#62 + yf#47r#45#51#62 - Xvl#87sp#47#58#38 - Xvl#95sp#47#56 - Xvl#101sp#47#44 = 0
 + yf#48r#44#39 + yf#48r#61#50 + yf#48r#61#52#46 - Xvl#86sp#37#57#48 - Xvl#94sp#55#48 - Xvl#100sp#43#48 = 0
 + yf#49r#45#51 + yf#49r#47#61 + yf#49r#40#43#61 - Xvl#101sp#49#62#44 = 0
 + yf#50r#52#46 + yf#50r#62#48 + yf#50r#62#44#39 - Xvl#100sp#43#61#50 = 0
 + yf#51r#46#49 + yf#51r#46#47#61 + yf#51r#24#25#59 = 0
 + yf#52r#50#45 + yf#52r#62#48#45 + yf#52r#60#26#23 = 0
 + yf#53r#55#58 + yf#53r#36#37 + yf#53r#42#43#58 - Xvl#75sp#56#53 - Xvl#81sp#53#26 - Xvl#93sp#53#38 - Xvl#96sp#53#57 = 0
 + yf#54r#57#56 + yf#54r#38#35 + yf#54r#57#44#41 - Xvl#74sp#54#55 - Xvl#80sp#25#54 - Xvl#92sp#37#54 - Xvl#97sp#58#54 = 0
 + yf#55r#42#43 + yf#55r#53#57 + yf#55r#36#37#57 - Xvl#74sp#54#55 - Xvl#81sp#55#58#26 - Xvl#88sp#35#55 - Xvl#94sp#55#48 - Xvl#94sp#55#44#39 - Xvl#96sp#55 - Xvl#98sp#55#44 = 0
 + yf#56r#44#41 + yf#56r#58#54 + yf#56r#58#38#35 - Xvl#75sp#56#53 - Xvl#80sp#25#57#56 - Xvl#89sp#56#36 - Xvl#95sp#47#56 - Xvl#95sp#40#43#56 - Xvl#97sp#56 - Xvl#99sp#43#56 = 0
 + yf#57r#54#55 + yf#57r#59#62 + yf#57r#38#33#43 - Xvl#74sp#57 - Xvl#80sp#25#57#56 - Xvl#86sp#37#57#48 - Xvl#88sp#37#57 - Xvl#96sp#53#57 = 0
 + yf#58r#56#53 + yf#58r#61#60 + yf#58r#44#34#37 - Xvl#75sp#58 - Xvl#81sp#55#58#26 - Xvl#87sp#47#58#38 - Xvl#89sp#58#38 - Xvl#97sp#58#54 = 0
 + yf#59r#57#61 + yf#59r#26#23#51 + yf#59r#54#55#61 - Xvl#74sp#59#62 = 0
 + yf#60r#62#58 + yf#60r#52#24#25 + yf#60r#62#56#53 - Xvl#75sp#61#60 = 0
 + yf#61r#58#59 + yf#61r#48#49 + yf#61r#44#39#49 - Xvl#75sp#61#60 - Xvl#100sp#43#61#50 = 0
 + yf#62r#60#57 + yf#62r#50#47 + yf#62r#50#40#43 - Xvl#74sp#59#62 - Xvl#101sp#49#62#44 = 0
 + yf#11r#13#20 + yf#11r#13#31#24 - Zs#13 <= 0.0
 + yf#11r#15#37#26 - Zs#15 <= 0.0
 + yf#11r#13#20 - Zs#20 <= 0.0
 + yf#11r#13#31#24 - Zs#24 <= 0.0
 + yf#11r#15#37#26 - Zs#26 <= 0.0
 + yf#11r#13#31#24 - Zs#31 <= 0.0
 + yf#11r#15#37#26 - Zs#37 <= 0.0
 + yf#12r#19#14 + yf#12r#23#32#14 - Zs#14 <= 0.0
 + yf#12r#25#38#16 - Zs#16 <= 0.0
 + yf#12r#19#14 - Zs#19 <= 0.0
 + yf#12r#23#32#14 - Zs#23 <= 0.0
 + yf#12r#25#38#16 - Zs#25 <= 0.0
 + yf#12r#23#32#14 - Zs#32 <= 0.0
 + yf#12r#25#38#16 - Zs#38 <= 0.0
 + yf#13r#11#19 + yf#13r#11#23#32 - Zs#11 <= 0.0
 + yf#13r#15#28 - Zs#15 <= 0.0
 + yf#13r#11#19 - Zs#19 <= 0.0
 + yf#13r#11#23#32 - Zs#23 <= 0.0
 + yf#13r#15#28 - Zs#28 <= 0.0
 + yf#13r#11#23#32 - Zs#32 <= 0.0
 + yf#14r#20#12 + yf#14r#31#24#12 - Zs#12 <= 0.0
 + yf#14r#27#16 - Zs#16 <= 0.0
 + yf#14r#20#12 - Zs#20 <= 0.0
 + yf#14r#31#24#12 - Zs#24 <= 0.0
 + yf#14r#27#16 - Zs#27 <= 0.0
 + yf#14r#31#24#12 - Zs#31 <= 0.0
 + yf#15r#11#25#38 - Zs#11 <= 0.0
 + yf#15r#13#27 - Zs#13 <= 0.0
 + yf#15r#17#36 - Zs#17 <= 0.0
 + yf#15r#11#25#38 - Zs#25 <= 0.0
 + yf#15r#13#27 - Zs#27 <= 0.0
 + yf#15r#17#36 - Zs#36 <= 0.0
 + yf#15r#11#25#38 - Zs#38 <= 0.0
 + yf#16r#37#26#12 - Zs#12 <= 0.0
 + yf#16r#28#14 - Zs#14 <= 0.0
 + yf#16r#35#18 - Zs#18 <= 0.0
 + yf#16r#37#26#12 - Zs#26 <= 0.0
 + yf#16r#28#14 - Zs#28 <= 0.0
 + yf#16r#35#18 - Zs#35 <= 0.0
 + yf#16r#37#26#12 - Zs#37 <= 0.0
 + yf#17r#11#25#54 - Zs#11 <= 0.0
 + yf#17r#13#27#35 - Zs#13 <= 0.0
 + yf#17r#15#35 - Zs#15 <= 0.0
 + yf#17r#11#25#54 - Zs#25 <= 0.0
 + yf#17r#13#27#35 - Zs#27 <= 0.0
 + yf#17r#15#35 + yf#17r#13#27#35 - Zs#35 <= 0.0
 + yf#17r#11#25#54 - Zs#54 <= 0.0
 + yf#18r#53#26#12 - Zs#12 <= 0.0
 + yf#18r#36#28#14 - Zs#14 <= 0.0
 + yf#18r#36#16 - Zs#16 <= 0.0
 + yf#18r#53#26#12 - Zs#26 <= 0.0
 + yf#18r#36#28#14 - Zs#28 <= 0.0
 + yf#18r#36#16 + yf#18r#36#28#14 - Zs#36 <= 0.0
 + yf#18r#53#26#12 - Zs#53 <= 0.0
 + yf#19r#12#13 - Zs#12 <= 0.0
 + yf#19r#12#13 - Zs#13 <= 0.0
 + yf#19r#23#32 - Zs#23 <= 0.0
 + yf#19r#25#38#28 - Zs#25 <= 0.0
 + yf#19r#25#38#28 - Zs#28 <= 0.0
 + yf#19r#23#32 - Zs#32 <= 0.0
 + yf#19r#25#38#28 - Zs#38 <= 0.0
 + yf#20r#14#11 - Zs#11 <= 0.0
 + yf#20r#14#11 - Zs#14 <= 0.0
 + yf#20r#31#24 - Zs#24 <= 0.0
 + yf#20r#27#37#26 - Zs#26 <= 0.0
 + yf#20r#27#37#26 - Zs#27 <= 0.0
 + yf#20r#31#24 - Zs#31 <= 0.0
 + yf#20r#27#37#26 - Zs#37 <= 0.0
 + yf#21r#19#29#39 - Zs#19 <= 0.0
 + yf#21r#23#46 - Zs#23 <= 0.0
 + yf#21r#25#57#48 - Zs#25 <= 0.0
 + yf#21r#19#29#39 - Zs#29 <= 0.0
 + yf#21r#19#29#39 - Zs#39 <= 0.0
 + yf#21r#23#46 - Zs#46 <= 0.0
 + yf#21r#25#57#48 - Zs#48 <= 0.0
 + yf#21r#25#57#48 - Zs#57 <= 0.0
 + yf#22r#40#30#20 - Zs#20 <= 0.0
 + yf#22r#45#24 - Zs#24 <= 0.0
 + yf#22r#47#58#26 - Zs#26 <= 0.0
 + yf#22r#40#30#20 - Zs#30 <= 0.0
 + yf#22r#40#30#20 - Zs#40 <= 0.0
 + yf#22r#45#24 - Zs#45 <= 0.0
 + yf#22r#47#58#26 - Zs#47 <= 0.0
 + yf#22r#47#58#26 - Zs#58 <= 0.0
 + yf#23r#12#13#31 - Zs#12 <= 0.0
 + yf#23r#12#13#31 - Zs#13 <= 0.0
 + yf#23r#19#31 - Zs#19 <= 0.0
 + yf#23r#21#45 - Zs#21 <= 0.0
 + yf#23r#19#31 + yf#23r#12#13#31 - Zs#31 <= 0.0
 + yf#23r#21#45 - Zs#45 <= 0.0
 + yf#24r#32#14#11 - Zs#11 <= 0.0
 + yf#24r#32#14#11 - Zs#14 <= 0.0
 + yf#24r#32#20 - Zs#20 <= 0.0
 + yf#24r#46#22 - Zs#22 <= 0.0
 + yf#24r#32#20 + yf#24r#32#14#11 - Zs#32 <= 0.0
 + yf#24r#46#22 - Zs#46 <= 0.0
 + yf#25r#12#15#37 + yf#25r#12#13#27#37 - Zs#12 <= 0.0
 + yf#25r#12#13#27#37 - Zs#13 <= 0.0
 + yf#25r#12#15#37 - Zs#15 <= 0.0
 + yf#25r#19#27#37 - Zs#19 <= 0.0
 + yf#25r#19#27#37 + yf#25r#12#13#27#37 - Zs#27 <= 0.0
 + yf#25r#19#27#37 + yf#25r#12#15#37 + yf#25r#12#13#27#37 - Zs#37 <= 0.0
 + yf#26r#38#16#11 + yf#26r#38#28#14#11 - Zs#11 <= 0.0
 + yf#26r#38#28#14#11 - Zs#14 <= 0.0
 + yf#26r#38#16#11 - Zs#16 <= 0.0
 + yf#26r#38#28#20 - Zs#20 <= 0.0
 + yf#26r#38#28#20 + yf#26r#38#28#14#11 - Zs#28 <= 0.0
 + yf#26r#38#28#20 + yf#26r#38#16#11 + yf#26r#38#28#14#11 - Zs#38 <= 0.0
 + yf#27r#14#15 - Zs#14 <= 0.0
 + yf#27r#14#15 - Zs#15 <= 0.0
 + yf#27r#20#25#38 - Zs#20 <= 0.0
 + yf#27r#20#25#38 - Zs#25 <= 0.0
 + yf#27r#29#34 - Zs#29 <= 0.0
 + yf#27r#29#34 - Zs#34 <= 0.0
 + yf#27r#20#25#38 - Zs#38 <= 0.0
 + yf#28r#16#13 - Zs#13 <= 0.0
 + yf#28r#16#13 - Zs#16 <= 0.0
 + yf#28r#37#26#19 - Zs#19 <= 0.0
 + yf#28r#37#26#19 - Zs#26 <= 0.0
 + yf#28r#33#30 - Zs#30 <= 0.0
 + yf#28r#33#30 - Zs#33 <= 0.0
 + yf#28r#37#26#19 - Zs#37 <= 0.0
 + yf#29r#27#33 + yf#29r#27#35#42 - Zs#27 <= 0.0
 + yf#29r#31#46#40 - Zs#31 <= 0.0
 + yf#29r#27#33 - Zs#33 <= 0.0
 + yf#29r#27#35#42 - Zs#35 <= 0.0
 + yf#29r#31#46#40 - Zs#40 <= 0.0
 + yf#29r#27#35#42 - Zs#42 <= 0.0
 + yf#29r#31#46#40 - Zs#46 <= 0.0
 + yf#30r#34#28 + yf#30r#41#36#28 - Zs#28 <= 0.0
 + yf#30r#39#45#32 - Zs#32 <= 0.0
 + yf#30r#34#28 - Zs#34 <= 0.0
 + yf#30r#41#36#28 - Zs#36 <= 0.0
 + yf#30r#39#45#32 - Zs#39 <= 0.0
 + yf#30r#41#36#28 - Zs#41 <= 0.0
 + yf#30r#39#45#32 - Zs#45 <= 0.0
 + yf#31r#14#11#23 - Zs#11 <= 0.0
 + yf#31r#14#11#23 - Zs#14 <= 0.0
 + yf#31r#20#23 - Zs#20 <= 0.0
 + yf#31r#20#23 + yf#31r#14#11#23 - Zs#23 <= 0.0
 + yf#31r#29#39#45 - Zs#29 <= 0.0
 + yf#31r#29#39#45 - Zs#39 <= 0.0
 + yf#31r#29#39#45 - Zs#45 <= 0.0
 + yf#32r#24#12#13 - Zs#12 <= 0.0
 + yf#32r#24#12#13 - Zs#13 <= 0.0
 + yf#32r#24#19 - Zs#19 <= 0.0
 + yf#32r#24#19 + yf#32r#24#12#13 - Zs#24 <= 0.0
 + yf#32r#46#40#30 - Zs#30 <= 0.0
 + yf#32r#46#40#30 - Zs#40 <= 0.0
 + yf#32r#46#40#30 - Zs#46 <= 0.0
 + yf#33r#28#29 - Zs#28 <= 0.0
 + yf#33r#28#29 - Zs#29 <= 0.0
 + yf#33r#35#42 - Zs#35 <= 0.0
 + yf#33r#37#57#44 - Zs#37 <= 0.0
 + yf#33r#35#42 - Zs#42 <= 0.0
 + yf#33r#37#57#44 - Zs#44 <= 0.0
 + yf#33r#37#57#44 - Zs#57 <= 0.0
 + yf#34r#30#27 - Zs#27 <= 0.0
 + yf#34r#30#27 - Zs#30 <= 0.0
 + yf#34r#41#36 - Zs#36 <= 0.0
 + yf#34r#43#58#38 - Zs#38 <= 0.0
 + yf#34r#41#36 - Zs#41 <= 0.0
 + yf#34r#43#58#38 - Zs#43 <= 0.0
 + yf#34r#43#58#38 - Zs#58 <= 0.0
 + yf#35r#33#41 - Zs#33 <= 0.0
 + yf#35r#37#54 + yf#35r#37#57#56 - Zs#37 <= 0.0
 + yf#35r#33#41 - Zs#41 <= 0.0
 + yf#35r#37#54 - Zs#54 <= 0.0
 + yf#35r#37#57#56 - Zs#56 <= 0.0
 + yf#35r#37#57#56 - Zs#57 <= 0.0
 + yf#36r#42#34 - Zs#34 <= 0.0
 + yf#36r#53#38 + yf#36r#55#58#38 - Zs#38 <= 0.0
 + yf#36r#42#34 - Zs#42 <= 0.0
 + yf#36r#53#38 - Zs#53 <= 0.0
 + yf#36r#55#58#38 - Zs#55 <= 0.0
 + yf#36r#55#58#38 - Zs#58 <= 0.0
 + yf#37r#33#43#58 - Zs#33 <= 0.0
 + yf#37r#35#53 + yf#37r#35#55#58 - Zs#35 <= 0.0
 + yf#37r#33#43#58 - Zs#43 <= 0.0
 + yf#37r#35#53 - Zs#53 <= 0.0
 + yf#37r#35#55#58 - Zs#55 <= 0.0
 + yf#37r#33#43#58 + yf#37r#35#55#58 - Zs#58 <= 0.0
 + yf#38r#57#44#34 - Zs#34 <= 0.0
 + yf#38r#54#36 + yf#38r#57#56#36 - Zs#36 <= 0.0
 + yf#38r#57#44#34 - Zs#44 <= 0.0
 + yf#38r#54#36 - Zs#54 <= 0.0
 + yf#38r#57#56#36 - Zs#56 <= 0.0
 + yf#38r#57#44#34 + yf#38r#57#56#36 - Zs#57 <= 0.0
 + yf#39r#30#31#46 - Zs#30 <= 0.0
 + yf#39r#30#31#46 - Zs#31 <= 0.0
 + yf#39r#43#48 + yf#39r#43#61#50 - Zs#43 <= 0.0
 + yf#39r#30#31#46 - Zs#46 <= 0.0
 + yf#39r#43#48 - Zs#48 <= 0.0
 + yf#39r#43#61#50 - Zs#50 <= 0.0
 + yf#39r#43#61#50 - Zs#61 <= 0.0
 + yf#40r#45#32#29 - Zs#29 <= 0.0
 + yf#40r#45#32#29 - Zs#32 <= 0.0
 + yf#40r#47#44 + yf#40r#49#62#44 - Zs#44 <= 0.0
 + yf#40r#45#32#29 - Zs#45 <= 0.0
 + yf#40r#47#44 - Zs#47 <= 0.0
 + yf#40r#49#62#44 - Zs#49 <= 0.0
 + yf#40r#49#62#44 - Zs#62 <= 0.0
 + yf#41r#34#35 - Zs#34 <= 0.0
 + yf#41r#34#35 - Zs#35 <= 0.0
 + yf#41r#43#56 + yf#41r#43#58#54 - Zs#43 <= 0.0
 + yf#41r#43#58#54 - Zs#54 <= 0.0
 + yf#41r#43#56 - Zs#56 <= 0.0
 + yf#41r#43#58#54 - Zs#58 <= 0.0
 + yf#42r#36#33 - Zs#33 <= 0.0
 + yf#42r#36#33 - Zs#36 <= 0.0
 + yf#42r#55#44 + yf#42r#53#57#44 - Zs#44 <= 0.0
 + yf#42r#53#57#44 - Zs#53 <= 0.0
 + yf#42r#55#44 - Zs#55 <= 0.0
 + yf#42r#53#57#44 - Zs#57 <= 0.0
 + yf#43r#34#37#57 - Zs#34 <= 0.0
 + yf#43r#34#37#57 - Zs#37 <= 0.0
 + yf#43r#39#47 - Zs#39 <= 0.0
 + yf#43r#41#55 - Zs#41 <= 0.0
 + yf#43r#39#47 - Zs#47 <= 0.0
 + yf#43r#41#55 - Zs#55 <= 0.0
 + yf#43r#34#37#57 - Zs#57 <= 0.0
 + yf#44r#58#38#33 - Zs#33 <= 0.0
 + yf#44r#58#38#33 - Zs#38 <= 0.0
 + yf#44r#48#40 - Zs#40 <= 0.0
 + yf#44r#56#42 - Zs#42 <= 0.0
 + yf#44r#48#40 - Zs#48 <= 0.0
 + yf#44r#56#42 - Zs#56 <= 0.0
 + yf#44r#58#38#33 - Zs#58 <= 0.0
 + yf#45r#22#23 - Zs#22 <= 0.0
 + yf#45r#22#23 - Zs#23 <= 0.0
 + yf#45r#40#30#31 - Zs#30 <= 0.0
 + yf#45r#40#30#31 - Zs#31 <= 0.0
 + yf#45r#40#30#31 - Zs#40 <= 0.0
 + yf#45r#49#52 - Zs#49 <= 0.0
 + yf#45r#49#52 - Zs#52 <= 0.0
 + yf#46r#24#21 - Zs#21 <= 0.0
 + yf#46r#24#21 - Zs#24 <= 0.0
 + yf#46r#32#29#39 - Zs#29 <= 0.0
 + yf#46r#32#29#39 - Zs#32 <= 0.0
 + yf#46r#32#29#39 - Zs#39 <= 0.0
 + yf#46r#51#50 - Zs#50 <= 0.0
 + yf#46r#51#50 - Zs#51 <= 0.0
 + yf#47r#40#43 - Zs#40 <= 0.0
 + yf#47r#40#43 - Zs#43 <= 0.0
 + yf#47r#45#51#62 - Zs#45 <= 0.0
 + yf#47r#49#62 - Zs#49 <= 0.0
 + yf#47r#45#51#62 - Zs#51 <= 0.0
 + yf#47r#49#62 + yf#47r#45#51#62 - Zs#62 <= 0.0
 + yf#48r#44#39 - Zs#39 <= 0.0
 + yf#48r#44#39 - Zs#44 <= 0.0
 + yf#48r#61#52#46 - Zs#46 <= 0.0
 + yf#48r#61#50 - Zs#50 <= 0.0
 + yf#48r#61#52#46 - Zs#52 <= 0.0
 + yf#48r#61#50 + yf#48r#61#52#46 - Zs#61 <= 0.0
 + yf#49r#40#43#61 - Zs#40 <= 0.0
 + yf#49r#40#43#61 - Zs#43 <= 0.0
 + yf#49r#45#51 - Zs#45 <= 0.0
 + yf#49r#47#61 - Zs#47 <= 0.0
 + yf#49r#45#51 - Zs#51 <= 0.0
 + yf#49r#47#61 + yf#49r#40#43#61 - Zs#61 <= 0.0
 + yf#50r#62#44#39 - Zs#39 <= 0.0
 + yf#50r#62#44#39 - Zs#44 <= 0.0
 + yf#50r#52#46 - Zs#46 <= 0.0
 + yf#50r#62#48 - Zs#48 <= 0.0
 + yf#50r#52#46 - Zs#52 <= 0.0
 + yf#50r#62#48 + yf#50r#62#44#39 - Zs#62 <= 0.0
 + yf#51r#24#25#59 - Zs#24 <= 0.0
 + yf#51r#24#25#59 - Zs#25 <= 0.0
 + yf#51r#46#49 + yf#51r#46#47#61 - Zs#46 <= 0.0
 + yf#51r#46#47#61 - Zs#47 <= 0.0
 + yf#51r#46#49 - Zs#49 <= 0.0
 + yf#51r#24#25#59 - Zs#59 <= 0.0
 + yf#51r#46#47#61 - Zs#61 <= 0.0
 + yf#52r#60#26#23 - Zs#23 <= 0.0
 + yf#52r#60#26#23 - Zs#26 <= 0.0
 + yf#52r#50#45 + yf#52r#62#48#45 - Zs#45 <= 0.0
 + yf#52r#62#48#45 - Zs#48 <= 0.0
 + yf#52r#50#45 - Zs#50 <= 0.0
 + yf#52r#60#26#23 - Zs#60 <= 0.0
 + yf#52r#62#48#45 - Zs#62 <= 0.0
 + yf#53r#36#37 - Zs#36 <= 0.0
 + yf#53r#36#37 - Zs#37 <= 0.0
 + yf#53r#42#43#58 - Zs#42 <= 0.0
 + yf#53r#42#43#58 - Zs#43 <= 0.0
 + yf#53r#55#58 - Zs#55 <= 0.0
 + yf#53r#55#58 + yf#53r#42#43#58 - Zs#58 <= 0.0
 + yf#54r#38#35 - Zs#35 <= 0.0
 + yf#54r#38#35 - Zs#38 <= 0.0
 + yf#54r#57#44#41 - Zs#41 <= 0.0
 + yf#54r#57#44#41 - Zs#44 <= 0.0
 + yf#54r#57#56 - Zs#56 <= 0.0
 + yf#54r#57#56 + yf#54r#57#44#41 - Zs#57 <= 0.0
 + yf#55r#36#37#57 - Zs#36 <= 0.0
 + yf#55r#36#37#57 - Zs#37 <= 0.0
 + yf#55r#42#43 - Zs#42 <= 0.0
 + yf#55r#42#43 - Zs#43 <= 0.0
 + yf#55r#53#57 - Zs#53 <= 0.0
 + yf#55r#53#57 + yf#55r#36#37#57 - Zs#57 <= 0.0
 + yf#56r#58#38#35 - Zs#35 <= 0.0
 + yf#56r#58#38#35 - Zs#38 <= 0.0
 + yf#56r#44#41 - Zs#41 <= 0.0
 + yf#56r#44#41 - Zs#44 <= 0.0
 + yf#56r#58#54 - Zs#54 <= 0.0
 + yf#56r#58#54 + yf#56r#58#38#35 - Zs#58 <= 0.0
 + yf#57r#38#33#43 - Zs#33 <= 0.0
 + yf#57r#38#33#43 - Zs#38 <= 0.0
 + yf#57r#38#33#43 - Zs#43 <= 0.0
 + yf#57r#54#55 - Zs#54 <= 0.0
 + yf#57r#54#55 - Zs#55 <= 0.0
 + yf#57r#59#62 - Zs#59 <= 0.0
 + yf#57r#59#62 - Zs#62 <= 0.0
 + yf#58r#44#34#37 - Zs#34 <= 0.0
 + yf#58r#44#34#37 - Zs#37 <= 0.0
 + yf#58r#44#34#37 - Zs#44 <= 0.0
 + yf#58r#56#53 - Zs#53 <= 0.0
 + yf#58r#56#53 - Zs#56 <= 0.0
 + yf#58r#61#60 - Zs#60 <= 0.0
 + yf#58r#61#60 - Zs#61 <= 0.0
 + yf#59r#26#23#51 - Zs#23 <= 0.0
 + yf#59r#26#23#51 - Zs#26 <= 0.0
 + yf#59r#26#23#51 - Zs#51 <= 0.0
 + yf#59r#54#55#61 - Zs#54 <= 0.0
 + yf#59r#54#55#61 - Zs#55 <= 0.0
 + yf#59r#57#61 - Zs#57 <= 0.0
 + yf#59r#57#61 + yf#59r#54#55#61 - Zs#61 <= 0.0
 + yf#60r#52#24#25 - Zs#24 <= 0.0
 + yf#60r#52#24#25 - Zs#25 <= 0.0
 + yf#60r#52#24#25 - Zs#52 <= 0.0
 + yf#60r#62#56#53 - Zs#53 <= 0.0
 + yf#60r#62#56#53 - Zs#56 <= 0.0
 + yf#60r#62#58 - Zs#58 <= 0.0
 + yf#60r#62#58 + yf#60r#62#56#53 - Zs#62 <= 0.0
 + yf#61r#44#39#49 - Zs#39 <= 0.0
 + yf#61r#44#39#49 - Zs#44 <= 0.0
 + yf#61r#48#49 - Zs#48 <= 0.0
 + yf#61r#48#49 + yf#61r#44#39#49 - Zs#49 <= 0.0
 + yf#61r#58#59 - Zs#58 <= 0.0
 + yf#61r#58#59 - Zs#59 <= 0.0
 + yf#62r#50#40#43 - Zs#40 <= 0.0
 + yf#62r#50#40#43 - Zs#43 <= 0.0
 + yf#62r#50#47 - Zs#47 <= 0.0
 + yf#62r#50#47 + yf#62r#50#40#43 - Zs#50 <= 0.0
 + yf#62r#60#57 - Zs#57 <= 0.0
 + yf#62r#60#57 - Zs#60 <= 0.0
Bounds
 Zs#11>= 0 
 Zs#12>= 0 
 Zs#13>= 0 
 Zs#14>= 0 
 Zs#15>= 0 
 Zs#16>= 0 
 Zs#17>= 0 
 Zs#18>= 0 
 Zs#19>= 0 
 Zs#20>= 0 
 Zs#21>= 0 
 Zs#22>= 0 
 Zs#23>= 0 
 Zs#24>= 0 
 Zs#25>= 0 
 Zs#26>= 0 
 Zs#27>= 0 
 Zs#28>= 0 
 Zs#29>= 0 
 Zs#30>= 0 
 Zs#31>= 0 
 Zs#32>= 0 
 Zs#33>= 0 
 Zs#34>= 0 
 Zs#35>= 0 
 Zs#36>= 0 
 Zs#37>= 0 
 Zs#38>= 0 
 Zs#39>= 0 
 Zs#40>= 0 
 Zs#41>= 0 
 Zs#42>= 0 
 Zs#43>= 0 
 Zs#44>= 0 
 Zs#45>= 0 
 Zs#46>= 0 
 Zs#47>= 0 
 Zs#48>= 0 
 Zs#49>= 0 
 Zs#50>= 0 
 Zs#51>= 0 
 Zs#52>= 0 
 Zs#53>= 0 
 Zs#54>= 0 
 Zs#55>= 0 
 Zs#56>= 0 
 Zs#57>= 0 
 Zs#58>= 0 
 Zs#59>= 0 
 Zs#60>= 0 
 Zs#61>= 0 
 Zs#62>= 0 
 Xvl#72sp#38#28 >= 0 
 Xvl#72sp#26#19 >= 0 
 Xvl#72sp#26#12#13 >= 0 
 Xvl#73sp#27#37 >= 0 
 Xvl#73sp#20#25 >= 0 
 Xvl#73sp#14#11#25 >= 0 
 Xvl#74sp#57 >= 0 
 Xvl#74sp#54#55 >= 0 
 Xvl#74sp#59#62 >= 0 
 Xvl#75sp#58 >= 0 
 Xvl#75sp#56#53 >= 0 
 Xvl#75sp#61#60 >= 0 
 Xvl#76sp#26#12 >= 0 
 Xvl#76sp#38#16 >= 0 
 Xvl#76sp#38#28#14 >= 0 
 Xvl#77sp#11#25 >= 0 
 Xvl#77sp#15#37 >= 0 
 Xvl#77sp#13#27#37 >= 0 
 Xvl#78sp#19 >= 0 
 Xvl#78sp#12#13 >= 0 
 Xvl#78sp#23#32 >= 0 
 Xvl#79sp#20 >= 0 
 Xvl#79sp#14#11 >= 0 
 Xvl#79sp#31#24 >= 0 
 Xvl#80sp#12#17 >= 0 
 Xvl#80sp#25#54 >= 0 
 Xvl#80sp#25#57#56 >= 0 
 Xvl#81sp#18#11 >= 0 
 Xvl#81sp#53#26 >= 0 
 Xvl#81sp#55#58#26 >= 0 
 Xvl#82sp#25#38 >= 0 
 Xvl#82sp#19#27 >= 0 
 Xvl#82sp#12#15 >= 0 
 Xvl#83sp#37#26 >= 0 
 Xvl#83sp#28#20 >= 0 
 Xvl#83sp#16#11 >= 0 
 Xvl#84sp#15 >= 0 
 Xvl#84sp#13#27 >= 0 
 Xvl#84sp#17#36 >= 0 
 Xvl#85sp#16 >= 0 
 Xvl#85sp#28#14 >= 0 
 Xvl#85sp#35#18 >= 0 
 Xvl#86sp#33#39 >= 0 
 Xvl#86sp#37#57#48 >= 0 
 Xvl#86sp#35#42#39 >= 0 
 Xvl#87sp#40#34 >= 0 
 Xvl#87sp#47#58#38 >= 0 
 Xvl#87sp#40#41#36 >= 0 
 Xvl#88sp#37#57 >= 0 
 Xvl#88sp#33#43 >= 0 
 Xvl#88sp#35#55 >= 0 
 Xvl#89sp#58#38 >= 0 
 Xvl#89sp#44#34 >= 0 
 Xvl#89sp#56#36 >= 0 
 Xvl#90sp#33 >= 0 
 Xvl#90sp#35#42 >= 0 
 Xvl#90sp#28#29 >= 0 
 Xvl#91sp#34 >= 0 
 Xvl#91sp#41#36 >= 0 
 Xvl#91sp#30#27 >= 0 
 Xvl#92sp#35 >= 0 
 Xvl#92sp#37#54 >= 0 
 Xvl#92sp#33#41 >= 0 
 Xvl#93sp#36 >= 0 
 Xvl#93sp#53#38 >= 0 
 Xvl#93sp#42#34 >= 0 
 Xvl#94sp#42#39 >= 0 
 Xvl#94sp#55#48 >= 0 
 Xvl#94sp#55#44#39 >= 0 
 Xvl#95sp#40#41 >= 0 
 Xvl#95sp#47#56 >= 0 
 Xvl#95sp#40#43#56 >= 0 
 Xvl#96sp#55 >= 0 
 Xvl#96sp#42#43 >= 0 
 Xvl#96sp#53#57 >= 0 
 Xvl#97sp#56 >= 0 
 Xvl#97sp#44#41 >= 0 
 Xvl#97sp#58#54 >= 0 
 Xvl#98sp#42 >= 0 
 Xvl#98sp#55#44 >= 0 
 Xvl#98sp#36#33 >= 0 
 Xvl#99sp#41 >= 0 
 Xvl#99sp#43#56 >= 0 
 Xvl#99sp#34#35 >= 0 
 Xvl#100sp#39 >= 0 
 Xvl#100sp#43#48 >= 0 
 Xvl#100sp#43#61#50 >= 0 
 Xvl#101sp#40 >= 0 
 Xvl#101sp#47#44 >= 0 
 Xvl#101sp#49#62#44 >= 0 
 yf#11r#13#20 >= 0 
 yf#11r#15#37#26 >= 0 
 yf#11r#13#31#24 >= 0 
 yf#12r#19#14 >= 0 
 yf#12r#25#38#16 >= 0 
 yf#12r#23#32#14 >= 0 
 yf#13r#11#19 >= 0 
 yf#13r#15#28 >= 0 
 yf#13r#11#23#32 >= 0 
 yf#14r#20#12 >= 0 
 yf#14r#27#16 >= 0 
 yf#14r#31#24#12 >= 0 
 yf#15r#13#27 >= 0 
 yf#15r#17#36 >= 0 
 yf#15r#11#25#38 >= 0 
 yf#16r#28#14 >= 0 
 yf#16r#35#18 >= 0 
 yf#16r#37#26#12 >= 0 
 yf#17r#15#35 >= 0 
 yf#17r#13#27#35 >= 0 
 yf#17r#11#25#54 >= 0 
 yf#18r#36#16 >= 0 
 yf#18r#36#28#14 >= 0 
 yf#18r#53#26#12 >= 0 
 yf#19r#12#13 >= 0 
 yf#19r#23#32 >= 0 
 yf#19r#25#38#28 >= 0 
 yf#20r#14#11 >= 0 
 yf#20r#31#24 >= 0 
 yf#20r#27#37#26 >= 0 
 yf#21r#23#46 >= 0 
 yf#21r#19#29#39 >= 0 
 yf#21r#25#57#48 >= 0 
 yf#22r#45#24 >= 0 
 yf#22r#40#30#20 >= 0 
 yf#22r#47#58#26 >= 0 
 yf#23r#19#31 >= 0 
 yf#23r#21#45 >= 0 
 yf#23r#12#13#31 >= 0 
 yf#24r#32#20 >= 0 
 yf#24r#46#22 >= 0 
 yf#24r#32#14#11 >= 0 
 yf#25r#19#27#37 >= 0 
 yf#25r#12#15#37 >= 0 
 yf#25r#12#13#27#37 >= 0 
 yf#26r#38#28#20 >= 0 
 yf#26r#38#16#11 >= 0 
 yf#26r#38#28#14#11 >= 0 
 yf#27r#29#34 >= 0 
 yf#27r#14#15 >= 0 
 yf#27r#20#25#38 >= 0 
 yf#28r#33#30 >= 0 
 yf#28r#16#13 >= 0 
 yf#28r#37#26#19 >= 0 
 yf#29r#27#33 >= 0 
 yf#29r#31#46#40 >= 0 
 yf#29r#27#35#42 >= 0 
 yf#30r#34#28 >= 0 
 yf#30r#39#45#32 >= 0 
 yf#30r#41#36#28 >= 0 
 yf#31r#20#23 >= 0 
 yf#31r#14#11#23 >= 0 
 yf#31r#29#39#45 >= 0 
 yf#32r#24#19 >= 0 
 yf#32r#24#12#13 >= 0 
 yf#32r#46#40#30 >= 0 
 yf#33r#35#42 >= 0 
 yf#33r#28#29 >= 0 
 yf#33r#37#57#44 >= 0 
 yf#34r#41#36 >= 0 
 yf#34r#30#27 >= 0 
 yf#34r#43#58#38 >= 0 
 yf#35r#37#54 >= 0 
 yf#35r#33#41 >= 0 
 yf#35r#37#57#56 >= 0 
 yf#36r#53#38 >= 0 
 yf#36r#42#34 >= 0 
 yf#36r#55#58#38 >= 0 
 yf#37r#35#53 >= 0 
 yf#37r#33#43#58 >= 0 
 yf#37r#35#55#58 >= 0 
 yf#38r#54#36 >= 0 
 yf#38r#57#44#34 >= 0 
 yf#38r#57#56#36 >= 0 
 yf#39r#43#48 >= 0 
 yf#39r#43#61#50 >= 0 
 yf#39r#30#31#46 >= 0 
 yf#40r#47#44 >= 0 
 yf#40r#49#62#44 >= 0 
 yf#40r#45#32#29 >= 0 
 yf#41r#43#56 >= 0 
 yf#41r#34#35 >= 0 
 yf#41r#43#58#54 >= 0 
 yf#42r#55#44 >= 0 
 yf#42r#36#33 >= 0 
 yf#42r#53#57#44 >= 0 
 yf#43r#41#55 >= 0 
 yf#43r#39#47 >= 0 
 yf#43r#34#37#57 >= 0 
 yf#44r#56#42 >= 0 
 yf#44r#48#40 >= 0 
 yf#44r#58#38#33 >= 0 
 yf#45r#49#52 >= 0 
 yf#45r#22#23 >= 0 
 yf#45r#40#30#31 >= 0 
 yf#46r#51#50 >= 0 
 yf#46r#24#21 >= 0 
 yf#46r#32#29#39 >= 0 
 yf#47r#40#43 >= 0 
 yf#47r#49#62 >= 0 
 yf#47r#45#51#62 >= 0 
 yf#48r#44#39 >= 0 
 yf#48r#61#50 >= 0 
 yf#48r#61#52#46 >= 0 
 yf#49r#45#51 >= 0 
 yf#49r#47#61 >= 0 
 yf#49r#40#43#61 >= 0 
 yf#50r#52#46 >= 0 
 yf#50r#62#48 >= 0 
 yf#50r#62#44#39 >= 0 
 yf#51r#46#49 >= 0 
 yf#51r#46#47#61 >= 0 
 yf#51r#24#25#59 >= 0 
 yf#52r#50#45 >= 0 
 yf#52r#62#48#45 >= 0 
 yf#52r#60#26#23 >= 0 
 yf#53r#55#58 >= 0 
 yf#53r#36#37 >= 0 
 yf#53r#42#43#58 >= 0 
 yf#54r#57#56 >= 0 
 yf#54r#38#35 >= 0 
 yf#54r#57#44#41 >= 0 
 yf#55r#42#43 >= 0 
 yf#55r#53#57 >= 0 
 yf#55r#36#37#57 >= 0 
 yf#56r#44#41 >= 0 
 yf#56r#58#54 >= 0 
 yf#56r#58#38#35 >= 0 
 yf#57r#54#55 >= 0 
 yf#57r#59#62 >= 0 
 yf#57r#38#33#43 >= 0 
 yf#58r#56#53 >= 0 
 yf#58r#61#60 >= 0 
 yf#58r#44#34#37 >= 0 
 yf#59r#57#61 >= 0 
 yf#59r#26#23#51 >= 0 
 yf#59r#54#55#61 >= 0 
 yf#60r#62#58 >= 0 
 yf#60r#52#24#25 >= 0 
 yf#60r#62#56#53 >= 0 
 yf#61r#58#59 >= 0 
 yf#61r#48#49 >= 0 
 yf#61r#44#39#49 >= 0 
 yf#62r#60#57 >= 0 
 yf#62r#50#47 >= 0 
 yf#62r#50#40#43 >= 0 
General
END